;; sat

(declare-const x1 sl.list.loc)
(declare-const x2 sl.list.loc)
(declare-const x3 sl.list.loc)
(declare-const x4 sl.list.loc)
(declare-const x5 sl.list.loc)
(declare-const x6 sl.list.loc)
(declare-const x7 sl.list.loc)
(declare-const x8 sl.list.loc)
(declare-const x9 sl.list.loc)
(declare-const x10 sl.list.loc)
(declare-const x11 sl.list.loc)
(declare-const x12 sl.list.loc)
(declare-const x13 sl.list.loc)
(declare-const x14 sl.list.loc)
(declare-const x15 sl.list.loc)
(declare-const x16 sl.list.loc)
(declare-const x17 sl.list.loc)
(declare-const x18 sl.list.loc)
(declare-const x19 sl.list.loc)
(declare-const x20 sl.list.loc)

(assert (and (sl.sepcon (sl.list.eq sl.list.null sl.list.null)
 (sl.sepcon (sl.sepcon (sl.sepcon (sl.sepcon (sl.sepcon (sl.sepcon (sl.sepcon (sl.sepcon (sl.sepcon (sl.sepcon (sl.sepcon (sl.sepcon (sl.sepcon (sl.sepcon (sl.sepcon (sl.sepcon (sl.sepcon (sl.sepcon (sl.sepcon (sl.list.seg x18 x11)
 (sl.list.seg x2 x6)
)
 (sl.list.next x1 x10)
)
 (sl.list.next x14 x4)
)
 (sl.list.next x15 x6)
)
 (sl.list.next x16 x7)
)
 (sl.list.next x11 x7)
)
 (sl.list.next x9 x6)
)
 (sl.list.seg x7 x4)
)
 (sl.list.next x4 x7)
)
 (sl.list.seg x13 x1)
)
 (sl.list.seg x20 x12)
)
 (sl.list.next x3 x10)
)
 (sl.list.seg x6 x3)
)
 (sl.list.seg x19 x18)
)
 (sl.list.next x10 x6)
)
 (sl.list.seg x8 x14)
)
 (sl.list.next x12 x5)
)
 (sl.list.next x17 x20)
)
 (sl.list.next x5 x11)
)
)
 (not (sl.sepcon (sl.sepcon (sl.sepcon (sl.sepcon (sl.sepcon (sl.sepcon (sl.sepcon (sl.sepcon (sl.sepcon (sl.sepcon (sl.sepcon (sl.sepcon (sl.list.seg x2 x6)
 (sl.list.seg x16 x7)
)
 (sl.list.seg x17 x20)
)
 (sl.list.seg x20 x12)
)
 (sl.list.seg x15 x6)
)
 (sl.list.seg x9 x3)
)
 (sl.list.seg x8 x4)
)
 (sl.list.seg x12 x11)
)
 (sl.list.seg x4 x7)
)
 (sl.list.seg x19 x11)
)
 (sl.list.seg x13 x10)
)
 (sl.list.seg x3 x6)
)
 (sl.list.seg x11 x4)
)
))
)

